p cnf 33 38
-1 6 23 -2 11 13 25 28 0 
-3 8 12 22 29 0 
-4 14 -5 26 -6 1 23 30 0 
-7 28 0 
-8 3 12 22 -4 14 30 0 
-7 31 0 
-2 11 13 25 32 0 
-1 6 23 32 0 
-1 6 23 29 0 
-9 -10 24 32 0 
-4 14 30 0 
-4 14 33 0 
-11 2 13 25 -12 3 8 22 33 0 
-10 24 29 0 
-13 2 11 25 29 0 
-14 4 29 0 
-15 -16 29 0 
-17 -15 33 0 
-3 8 12 22 -18 -19 21 29 0 
-20 -15 33 0 
-15 -18 -16 29 0 
-18 -4 14 30 0 
-14 4 33 0 
-1 6 23 33 0 
-21 19 29 0 
-1 6 23 29 0 
-10 24 33 0 
-22 3 8 12 29 0 
-23 1 6 29 0 
-15 33 0 
-24 10 29 0 
-20 -14 4 29 0 
-25 2 11 13 29 0 
-2 11 13 25 33 0 
-2 11 13 25 29 0 
-15 30 0 
-26 5 33 0 
-27 29 0 
